40 7 1
1 1 0 327
1 1 4 414
1 1 0 499
1 3 0 362 1 362 5 362
1 1 4 556
1 1 4 639
1 1 0 440
1 2 0 531 6 531
1 1 0 342
1 1 0 300
1 1 4 732
1 1 0 351
1 1 0 426
1 2 4 535 6 535
1 1 4 534
1 2 0 378 6 378
1 2 4 752 6 752
1 1 0 326
1 2 0 468 6 468
1 1 0 337
1 1 0 351
1 1 4 331
1 1 0 317
1 1 0 500
1 1 4 806
1 1 0 554
1 1 0 380
1 1 0 555
1 3 0 523 1 523 5 523
1 2 4 639 6 639
1 3 0 476 1 476 5 476
1 1 0 477
1 1 4 631
1 1 4 779
1 2 4 798 6 798
1 1 4 682
1 1 0 367
1 1 0 471
1 1 0 496
1 1 0 352
